60
2 0 1
3 0 1
3 1 1
3 2 1
4 2 1
5 0 1
5 1 1
5 3 1
6 0 1
6 1 1
6 2 1
6 4 1
7 0 1
7 2 1
7 3 1
7 4 1
7 5 1
8 0 1
8 2 1
8 3 1
8 5 1
8 6 1
8 7 1
9 0 1
9 2 1
9 3 1
9 5 1
9 6 1
9 8 1
10 0 1
10 1 1
10 3 1
10 4 1
10 5 1
10 6 1
11 3 1
11 5 1
11 10 1
12 0 1
12 1 1
12 5 1
12 10 1
13 0 1
13 2 1
14 0 1
14 2 1
14 9 1
14 13 1
15 2 1
15 4 1
15 5 1
15 7 1
15 9 1
15 11 1
15 13 1
16 0 1
16 1 1
16 2 1
16 3 1
16 5 1
16 7 1
16 8 1
16 10 1
16 11 1
16 12 1
16 15 1
17 0 1
17 1 1
17 4 1
17 5 1
17 6 1
17 13 1
17 15 1
17 16 1
18 3 1
18 4 1
18 10 1
18 11 1
18 12 1
18 14 1
18 15 1
19 0 1
19 2 1
19 5 1
19 10 1
19 18 1
20 0 1
20 2 1
20 5 1
20 6 1
20 9 1
20 11 1
20 14 1
20 15 1
20 16 1
20 19 1
21 0 1
21 1 1
21 3 1
21 4 1
21 9 1
21 10 1
21 12 1
21 18 1
21 20 1
22 1 1
22 3 1
22 5 1
22 6 1
22 8 1
22 9 1
22 10 1
22 11 1
22 12 1
22 13 1
22 14 1
22 19 1
22 21 1
23 4 1
23 5 1
23 6 1
23 7 1
23 8 1
23 9 1
23 10 1
23 16 1
23 22 1
24 2 1
24 3 1
24 5 1
24 7 1
24 8 1
24 9 1
24 11 1
24 12 1
24 15 1
24 16 1
24 18 1
24 20 1
24 22 1
24 23 1
25 1 1
25 4 1
25 6 1
25 8 1
25 9 1
25 10 1
25 11 1
25 12 1
25 15 1
25 16 1
25 20 1
25 23 1
25 24 1
26 0 1
26 2 1
26 4 1
26 5 1
26 7 1
26 8 1
26 9 1
26 10 1
26 11 1
26 14 1
26 15 1
26 16 1
26 21 1
26 23 1
27 1 1
27 7 1
27 8 1
27 10 1
27 12 1
27 14 1
27 17 1
27 23 1
27 24 1
28 0 1
28 2 1
28 3 1
28 4 1
28 5 1
28 6 1
28 11 1
28 15 1
28 16 1
28 19 1
28 24 1
28 25 1
28 26 1
29 0 1
29 1 1
29 7 1
29 8 1
29 9 1
29 11 1
29 12 1
29 13 1
29 14 1
29 16 1
29 17 1
29 20 1
29 22 1
29 23 1
29 25 1
29 28 1
30 0 1
30 1 1
30 2 1
30 3 1
30 6 1
30 7 1
30 11 1
30 12 1
30 14 1
30 16 1
30 20 1
30 21 1
30 23 1
30 24 1
30 25 1
30 26 1
30 27 1
30 28 1
30 29 1
31 0 1
31 1 1
31 3 1
31 4 1
31 7 1
31 9 1
31 11 1
31 12 1
31 14 1
31 17 1
31 18 1
31 19 1
31 20 1
31 22 1
31 23 1
31 25 1
31 27 1
31 30 1
32 3 1
32 4 1
32 7 1
32 8 1
32 9 1
32 11 1
32 12 1
32 16 1
32 22 1
32 23 1
32 24 1
32 25 1
32 27 1
32 28 1
33 3 1
33 4 1
33 6 1
33 11 1
33 12 1
33 14 1
33 15 1
33 17 1
33 18 1
33 19 1
33 21 1
33 23 1
33 24 1
33 29 1
33 30 1
34 1 1
34 5 1
34 6 1
34 8 1
34 12 1
34 14 1
34 16 1
34 18 1
34 19 1
34 25 1
34 26 1
34 27 1
34 29 1
34 30 1
34 31 1
34 32 1
35 1 1
35 3 1
35 4 1
35 7 1
35 8 1
35 11 1
35 13 1
35 14 1
35 15 1
35 17 1
35 19 1
35 21 1
35 22 1
35 23 1
35 24 1
35 25 1
35 26 1
35 27 1
35 30 1
35 31 1
36 0 1
36 1 1
36 2 1
36 3 1
36 4 1
36 5 1
36 6 1
36 11 1
36 12 1
36 15 1
36 17 1
36 18 1
36 20 1
36 22 1
36 25 1
36 26 1
36 29 1
36 30 1
36 31 1
36 32 1
36 33 1
36 34 1
37 2 1
37 3 1
37 4 1
37 6 1
37 7 1
37 8 1
37 10 1
37 11 1
37 12 1
37 13 1
37 14 1
37 15 1
37 16 1
37 18 1
37 24 1
37 27 1
37 30 1
37 31 1
38 4 1
38 5 1
38 6 1
38 7 1
38 10 1
38 12 1
38 13 1
38 14 1
38 15 1
38 16 1
38 19 1
38 20 1
38 22 1
38 23 1
38 25 1
38 26 1
38 30 1
38 33 1
38 35 1
38 37 1
39 1 1
39 8 1
39 12 1
39 14 1
39 15 1
39 17 1
39 18 1
39 20 1
39 21 1
39 23 1
39 26 1
39 27 1
39 28 1
39 31 1
39 32 1
39 34 1
39 37 1
39 38 1
40 0 1
40 2 1
40 3 1
40 8 1
40 10 1
40 11 1
40 15 1
40 19 1
40 20 1
40 21 1
40 22 1
40 23 1
40 24 1
40 26 1
40 32 1
40 34 1
40 38 1
41 1 1
41 4 1
41 6 1
41 7 1
41 10 1
41 11 1
41 14 1
41 15 1
41 16 1
41 18 1
41 19 1
41 20 1
41 23 1
41 25 1
41 30 1
41 32 1
41 36 1
41 37 1
41 38 1
41 40 1
42 0 1
42 2 1
42 4 1
42 6 1
42 7 1
42 8 1
42 10 1
42 12 1
42 13 1
42 15 1
42 16 1
42 17 1
42 18 1
42 19 1
42 21 1
42 22 1
42 24 1
42 27 1
42 30 1
42 34 1
42 35 1
42 37 1
42 38 1
42 40 1
42 41 1
43 2 1
43 5 1
43 7 1
43 12 1
43 14 1
43 15 1
43 18 1
43 24 1
43 25 1
43 27 1
43 28 1
43 29 1
43 31 1
43 33 1
43 34 1
43 35 1
43 36 1
43 37 1
43 38 1
43 41 1
43 42 1
44 5 1
44 7 1
44 8 1
44 14 1
44 15 1
44 16 1
44 17 1
44 20 1
44 21 1
44 22 1
44 23 1
44 24 1
44 25 1
44 26 1
44 27 1
44 28 1
44 30 1
44 31 1
44 34 1
44 35 1
44 37 1
44 38 1
44 39 1
44 40 1
44 43 1
45 2 1
45 6 1
45 7 1
45 8 1
45 11 1
45 16 1
45 17 1
45 19 1
45 23 1
45 29 1
45 35 1
45 40 1
45 44 1
46 2 1
46 8 1
46 10 1
46 11 1
46 12 1
46 14 1
46 15 1
46 22 1
46 28 1
46 29 1
46 31 1
46 36 1
46 37 1
46 38 1
46 40 1
46 41 1
46 43 1
47 0 1
47 1 1
47 6 1
47 7 1
47 8 1
47 9 1
47 10 1
47 11 1
47 14 1
47 18 1
47 19 1
47 23 1
47 24 1
47 26 1
47 27 1
47 28 1
47 30 1
47 32 1
47 38 1
47 40 1
47 41 1
47 43 1
47 44 1
47 45 1
47 46 1
48 1 1
48 2 1
48 3 1
48 5 1
48 6 1
48 7 1
48 9 1
48 10 1
48 11 1
48 15 1
48 16 1
48 17 1
48 18 1
48 19 1
48 21 1
48 23 1
48 24 1
48 25 1
48 30 1
48 32 1
48 34 1
48 36 1
48 40 1
48 41 1
48 43 1
48 45 1
49 0 1
49 4 1
49 11 1
49 13 1
49 16 1
49 17 1
49 19 1
49 20 1
49 23 1
49 24 1
49 25 1
49 27 1
49 28 1
49 30 1
49 31 1
49 32 1
49 33 1
49 34 1
49 37 1
49 38 1
49 39 1
49 41 1
49 42 1
49 44 1
49 47 1
50 0 1
50 1 1
50 2 1
50 3 1
50 6 1
50 10 1
50 11 1
50 12 1
50 14 1
50 15 1
50 17 1
50 18 1
50 19 1
50 20 1
50 22 1
50 25 1
50 31 1
50 36 1
50 37 1
50 38 1
50 39 1
50 42 1
50 44 1
50 45 1
50 47 1
50 48 1
50 49 1
51 2 1
51 6 1
51 15 1
51 17 1
51 18 1
51 19 1
51 24 1
51 25 1
51 27 1
51 28 1
51 29 1
51 32 1
51 34 1
51 35 1
51 36 1
51 37 1
51 39 1
51 40 1
51 42 1
51 43 1
51 44 1
51 45 1
51 48 1
52 5 1
52 8 1
52 11 1
52 12 1
52 14 1
52 17 1
52 18 1
52 26 1
52 29 1
52 31 1
52 32 1
52 34 1
52 36 1
52 37 1
52 38 1
52 40 1
52 41 1
52 43 1
52 44 1
52 45 1
52 46 1
52 47 1
53 0 1
53 4 1
53 10 1
53 13 1
53 15 1
53 18 1
53 20 1
53 21 1
53 22 1
53 23 1
53 24 1
53 26 1
53 30 1
53 31 1
53 33 1
53 34 1
53 37 1
53 38 1
53 39 1
53 43 1
53 44 1
53 45 1
53 46 1
53 48 1
53 50 1
53 52 1
54 2 1
54 3 1
54 4 1
54 5 1
54 7 1
54 9 1
54 10 1
54 15 1
54 16 1
54 19 1
54 20 1
54 21 1
54 22 1
54 23 1
54 26 1
54 29 1
54 30 1
54 35 1
54 36 1
54 39 1
54 40 1
54 41 1
54 43 1
54 45 1
54 49 1
54 50 1
54 53 1
55 0 1
55 1 1
55 3 1
55 5 1
55 6 1
55 7 1
55 9 1
55 11 1
55 12 1
55 13 1
55 15 1
55 19 1
55 21 1
55 24 1
55 25 1
55 26 1
55 27 1
55 30 1
55 34 1
55 36 1
55 38 1
55 40 1
55 41 1
55 42 1
55 43 1
55 44 1
55 46 1
55 47 1
55 49 1
55 50 1
55 51 1
56 0 1
56 3 1
56 6 1
56 7 1
56 12 1
56 14 1
56 18 1
56 19 1
56 20 1
56 23 1
56 29 1
56 30 1
56 31 1
56 33 1
56 34 1
56 35 1
56 39 1
56 44 1
56 45 1
56 46 1
56 47 1
56 49 1
56 51 1
57 3 1
57 4 1
57 5 1
57 7 1
57 12 1
57 13 1
57 15 1
57 17 1
57 18 1
57 19 1
57 20 1
57 21 1
57 23 1
57 26 1
57 30 1
57 31 1
57 32 1
57 33 1
57 34 1
57 44 1
57 49 1
57 51 1
57 54 1
57 56 1
58 0 1
58 1 1
58 2 1
58 3 1
58 4 1
58 7 1
58 8 1
58 11 1
58 14 1
58 16 1
58 18 1
58 19 1
58 20 1
58 21 1
58 22 1
58 24 1
58 26 1
58 29 1
58 30 1
58 34 1
58 35 1
58 36 1
58 38 1
58 44 1
58 45 1
58 46 1
58 49 1
58 50 1
58 51 1
58 53 1
58 57 1
59 2 1
59 3 1
59 4 1
59 5 1
59 8 1
59 12 1
59 14 1
59 16 1
59 18 1
59 19 1
59 20 1
59 21 1
59 23 1
59 24 1
59 25 1
59 27 1
59 28 1
59 29 1
59 30 1
59 32 1
59 35 1
59 36 1
59 37 1
59 38 1
59 39 1
59 40 1
59 41 1
59 43 1
59 47 1
59 48 1
59 51 1
59 54 1
59 55 1
59 56 1
59 57 1
